[VALIDATOR STDOUT]
Checking plan: /home/jfan5/Safety-gen/runs/benchmark/optic/blocksworld_20260205_112402/blocksworld/optic_results/bw_ops3_n20_seed20001.plan
Plan executed successfully - checking goal
Plan valid
Final value: 74 

Successful plans:
Value: 74
 /home/jfan5/Safety-gen/runs/benchmark/optic/blocksworld_20260205_112402/blocksworld/optic_results/bw_ops3_n20_seed20001.plan 74
